50
1 0 15
2 0 3
3 1 6
3 2 20
4 0 9
4 1 10
4 2 9
4 3 5
5 1 7
5 2 4
5 3 7
5 4 17
6 0 15
6 1 9
6 2 13
6 4 13
7 4 17
7 5 17
8 0 14
8 4 7
8 5 9
9 0 16
9 1 4
9 2 2
9 5 20
9 6 20
9 7 12
9 8 17
10 0 1
10 3 17
10 4 17
10 5 14
10 7 5
10 8 10
10 9 17
11 0 6
11 1 11
11 3 10
11 4 11
11 6 9
11 7 17
11 8 14
12 0 11
12 2 7
12 3 12
12 4 14
12 5 4
12 8 14
12 9 13
12 11 4
13 0 15
13 1 15
13 2 15
13 4 3
13 6 14
13 8 17
13 9 18
13 10 9
13 12 9
14 0 1
14 1 20
14 3 11
14 4 10
14 5 20
14 6 11
14 7 16
14 9 7
14 10 17
14 11 4
14 13 14
15 0 19
15 1 9
15 2 16
15 3 17
15 5 14
15 7 16
15 8 11
15 10 10
15 12 3
15 13 20
15 14 3
16 1 20
16 2 20
16 5 5
16 8 7
16 10 4
16 11 2
16 13 17
16 14 11
17 0 6
17 2 19
17 4 10
17 6 20
17 7 8
17 8 20
17 9 18
17 10 20
17 12 17
17 13 15
17 14 14
17 15 10
17 16 1
18 0 1
18 1 5
18 2 14
18 3 17
18 4 19
18 5 14
18 6 13
18 7 16
18 8 6
18 9 11
18 10 8
18 11 1
18 12 4
18 13 5
18 17 3
19 1 3
19 2 1
19 3 17
19 4 3
19 5 14
19 6 3
19 8 14
19 9 2
19 10 7
19 12 6
19 13 12
19 15 10
19 16 14
19 17 10
19 18 15
20 0 13
20 1 1
20 3 1
20 4 8
20 5 20
20 6 5
20 7 13
20 8 15
20 9 9
20 11 4
20 12 2
20 13 16
20 14 10
20 15 2
20 16 3
20 17 20
20 18 6
21 6 15
21 9 15
21 10 2
21 11 8
21 13 11
21 14 2
21 15 15
21 18 20
21 19 15
22 1 13
22 2 4
22 3 13
22 4 6
22 5 17
22 7 4
22 8 5
22 9 13
22 11 6
22 13 8
22 14 14
22 16 9
22 17 17
22 19 6
22 20 7
22 21 19
23 0 18
23 1 13
23 2 15
23 3 2
23 4 16
23 5 2
23 6 11
23 8 4
23 9 7
23 12 18
23 17 8
23 18 11
23 20 11
23 21 2
24 0 19
24 1 16
24 2 15
24 6 19
24 7 4
24 8 13
24 9 5
24 11 19
24 12 7
24 13 18
24 14 18
24 16 17
24 17 2
24 18 8
24 19 7
24 20 14
24 21 19
24 23 20
25 0 1
25 2 18
25 4 19
25 5 13
25 6 19
25 7 18
25 8 2
25 9 11
25 11 11
25 12 16
25 13 16
25 15 7
25 16 4
25 18 10
25 19 3
25 21 18
25 22 15
25 23 5
25 24 6
26 0 8
26 1 3
26 2 5
26 3 20
26 6 2
26 7 10
26 10 19
26 12 5
26 14 19
26 15 3
26 16 15
26 17 14
26 21 3
26 23 20
26 24 8
27 2 16
27 4 16
27 5 13
27 9 9
27 10 4
27 15 3
27 16 3
27 18 6
27 19 5
27 21 10
27 25 17
27 26 6
28 1 19
28 2 18
28 3 7
28 6 1
28 7 7
28 10 19
28 11 16
28 12 13
28 13 6
28 14 2
28 15 9
28 16 20
28 17 14
28 19 11
28 21 18
28 23 8
28 24 18
28 26 19
28 27 11
29 0 3
29 1 12
29 2 7
29 4 13
29 5 13
29 6 13
29 9 19
29 13 12
29 15 16
29 16 10
29 18 9
29 20 10
29 21 7
29 22 5
29 23 12
29 25 13
29 26 11
29 28 6
30 0 1
30 1 2
30 3 2
30 5 12
30 10 16
30 11 18
30 13 1
30 14 8
30 16 20
30 17 10
30 18 11
30 19 7
30 21 11
30 22 18
30 24 4
30 26 4
30 27 4
31 1 16
31 2 11
31 3 7
31 4 11
31 6 2
31 7 9
31 10 16
31 11 11
31 12 18
31 13 19
31 15 15
31 16 17
31 17 14
31 18 4
31 19 16
31 20 8
31 21 2
31 23 9
31 24 13
31 25 19
31 26 9
31 28 6
31 29 8
31 30 8
32 0 14
32 1 11
32 2 20
32 3 11
32 5 1
32 6 16
32 7 20
32 8 7
32 10 15
32 13 11
32 14 15
32 15 9
32 16 1
32 18 6
32 19 6
32 20 16
32 21 13
32 22 9
32 25 12
32 26 4
32 27 13
32 29 20
32 30 1
33 0 19
33 1 11
33 3 7
33 4 19
33 5 15
33 6 16
33 8 15
33 9 10
33 11 11
33 12 13
33 14 14
33 15 8
33 16 8
33 18 3
33 20 17
33 23 9
33 24 1
33 25 14
33 26 10
33 29 14
33 30 1
33 31 1
33 32 2
34 0 1
34 4 18
34 5 10
34 6 18
34 7 13
34 9 18
34 10 6
34 11 11
34 12 4
34 13 14
34 14 7
34 17 18
34 19 9
34 21 13
34 22 9
34 23 20
34 24 5
34 25 6
34 28 15
34 29 15
34 32 15
34 33 3
35 2 10
35 5 2
35 6 11
35 7 20
35 9 19
35 10 20
35 12 9
35 13 10
35 16 19
35 18 1
35 19 3
35 21 16
35 22 11
35 23 19
35 24 3
35 25 14
35 26 19
35 28 20
35 29 14
35 31 1
35 32 1
35 34 16
36 0 7
36 2 14
36 5 16
36 6 18
36 10 13
36 11 14
36 12 13
36 14 1
36 16 20
36 17 8
36 20 3
36 22 1
36 24 6
36 27 3
36 28 11
36 30 16
36 31 14
36 32 20
36 34 8
36 35 19
37 2 5
37 3 16
37 4 8
37 6 3
37 7 11
37 9 17
37 10 12
37 11 17
37 13 12
37 16 17
37 23 12
37 24 3
37 25 10
37 26 5
37 29 10
37 30 14
37 33 11
37 34 10
38 0 5
38 1 11
38 2 14
38 3 10
38 4 11
38 5 10
38 7 10
38 8 14
38 9 10
38 11 6
38 12 9
38 13 4
38 15 19
38 16 11
38 17 1
38 18 3
38 21 15
38 22 15
38 23 2
38 26 4
38 27 4
38 28 3
38 29 15
38 30 10
38 31 17
38 32 15
38 33 4
38 34 17
38 35 7
38 36 20
38 37 3
39 0 7
39 1 12
39 5 5
39 7 1
39 10 16
39 11 12
39 12 8
39 13 16
39 14 15
39 16 5
39 17 14
39 20 7
39 21 2
39 22 11
39 24 19
39 25 6
39 27 5
39 28 15
39 29 6
39 31 20
39 32 17
39 34 10
39 36 15
39 37 19
39 38 18
40 0 14
40 2 17
40 3 1
40 5 14
40 6 8
40 7 11
40 8 11
40 9 15
40 11 16
40 12 13
40 13 14
40 14 20
40 16 16
40 18 1
40 19 4
40 20 5
40 21 8
40 23 6
40 24 8
40 25 16
40 26 6
40 27 13
40 28 10
40 29 11
40 30 7
40 31 6
40 32 11
40 34 16
40 35 11
40 36 13
40 39 7
41 1 15
41 3 14
41 4 8
41 5 1
41 9 17
41 12 2
41 13 19
41 14 2
41 15 18
41 16 13
41 17 11
41 18 12
41 20 1
41 21 14
41 23 6
41 24 14
41 27 18
41 30 15
41 31 1
41 32 7
41 34 13
41 35 7
41 37 3
41 38 6
41 39 4
41 40 14
42 0 13
42 1 2
42 3 13
42 5 3
42 6 12
42 7 7
42 8 15
42 9 19
42 11 15
42 12 4
42 13 4
42 16 9
42 17 9
42 18 1
42 20 18
42 22 15
42 26 3
42 28 16
42 30 12
42 31 12
42 33 3
42 34 19
42 36 3
42 38 8
42 41 1
43 1 11
43 2 3
43 3 6
43 5 6
43 7 1
43 10 1
43 11 19
43 12 1
43 13 6
43 14 5
43 15 10
43 16 10
43 17 8
43 18 12
43 19 11
43 20 1
43 21 15
43 22 14
43 23 12
43 25 17
43 26 11
43 30 7
43 33 12
43 34 6
43 35 2
43 36 12
43 37 8
43 38 16
43 39 4
43 40 16
43 42 14
44 2 16
44 3 10
44 4 16
44 9 19
44 10 16
44 11 6
44 13 14
44 14 17
44 15 6
44 16 20
44 18 11
44 20 7
44 22 2
44 23 3
44 24 18
44 25 8
44 26 15
44 27 15
44 28 17
44 30 20
44 31 4
44 34 14
44 35 13
44 36 13
44 37 14
44 38 12
44 39 3
44 41 1
44 42 15
44 43 20
45 0 16
45 1 17
45 2 14
45 3 2
45 4 13
45 5 14
45 6 7
45 7 8
45 8 14
45 9 8
45 10 3
45 13 15
45 14 18
45 15 15
45 17 6
45 18 6
45 20 12
45 21 17
45 22 3
45 24 8
45 26 11
45 28 11
45 29 4
45 30 10
45 31 13
45 33 13
45 35 17
45 37 8
45 38 20
45 39 6
45 40 10
45 41 9
45 42 14
45 43 20
45 44 7
46 1 15
46 2 19
46 7 10
46 9 4
46 10 15
46 11 2
46 12 18
46 13 13
46 15 3
46 16 16
46 17 17
46 18 19
46 19 5
46 20 9
46 21 4
46 22 19
46 23 18
46 25 6
46 30 19
46 32 8
46 36 11
46 37 18
46 38 20
46 40 20
46 42 16
46 43 9
47 1 16
47 3 13
47 4 8
47 5 17
47 8 14
47 9 8
47 10 1
47 11 20
47 13 17
47 16 17
47 17 18
47 18 9
47 19 5
47 20 12
47 21 20
47 22 5
47 23 14
47 24 14
47 25 20
47 27 16
47 28 11
47 29 4
47 30 14
47 31 10
47 32 3
47 34 6
47 36 14
47 37 6
47 39 3
47 40 10
47 41 17
47 43 10
47 45 8
47 46 19
48 0 1
48 1 2
48 3 18
48 4 14
48 5 12
48 6 14
48 8 6
48 9 18
48 10 5
48 12 18
48 14 16
48 15 18
48 16 8
48 18 14
48 20 16
48 21 7
48 22 12
48 23 8
48 24 18
48 25 4
48 30 18
48 31 3
48 32 7
48 33 4
48 34 9
48 35 3
48 36 17
48 37 17
48 38 4
48 39 9
48 40 5
48 41 3
48 42 18
48 43 10
48 45 19
48 46 15
48 47 17
49 0 13
49 2 1
49 3 11
49 4 6
49 5 6
49 6 18
49 7 8
49 8 14
49 9 7
49 10 4
49 12 18
49 15 8
49 17 7
49 18 2
49 20 20
49 21 18
49 22 18
49 24 19
49 25 9
49 26 13
49 27 9
49 29 12
49 30 14
49 31 17
49 32 8
49 37 3
49 38 6
49 39 14
49 41 12
49 42 2
49 46 15
49 47 13
